p cnf 50 50
1 -19 -47 0
-7 -32 -14 0
-43 42 12 0
-28 -35 18 0
-34 40 17 0
-38 18 11 0
-31 8 -47 0
-6 26 -4 0
49 17 -46 0
7 24 -33 0
31 32 -6 0
-29 38 15 0
-13 23 42 0
-5 -21 -11 0
-42 49 -28 0
38 41 20 0
-29 -10 -4 0
24 -18 35 0
-43 45 -5 0
40 -2 1 0
32 46 41 0
-38 10 -33 0
24 -27 -8 0
15 -8 33 0
-24 50 44 0
46 -35 13 0
-23 8 -45 0
37 24 34 0
-25 -34 21 0
35 -24 13 0
24 -35 31 0
41 -9 -7 0
-8 46 13 0
-49 22 27 0
35 21 14 0
12 19 46 0
18 6 4 0
35 -29 22 0
49 43 -50 0
-24 22 -48 0
-6 -7 -50 0
25 -35 -34 0
27 -20 28 0
28 34 -19 0
8 -16 -23 0
-24 -25 18 0
23 10 -7 0
45 -16 -17 0
39 -47 18 0
42 -38 29 0
